! Assignment 2
! 		---------------------------------------------
! list of nodes :
*NODES
! n. of node - constraint code (x,y,theta) - x coordinate- y coordinate.
1      1 1 1   0.0      0.0    ! O
2      0 0 0   0.0      7.50
3      0 0 0   0.0      15.0
4      0 0 0   0.0      22.50
5      0 0 0   0.0      30.0
6      0 0 0   0.0      37.50
7      0 0 0   0.0      45.0
8      0 0 0   0.0      52.50
9      0 0 0   0.0      60.0     ! A
10     1 1 1   17.0     0.0      ! C
11     0 0 0   17.0     4.3121   
12     0 0 0   17.0     11.8121
13     0 0 0   17.0     19.3121
14     0 0 0   17.0     26.8121
15     0 0 0   17.0     34.3121
16     0 0 0   17.0     41.8121
17     0 0 0   17.0     49.3121  ! B
18     0 0 0    8.5     2.1561

! end card *NODES
*ENDNODES
! 		---------------------------------------------
! list of elements :
*BEAMS
! n. of elem. - n. of input node - n. of output node - property
1       1      2    1
2	    2      3    1
3       3      4    1
4       4      5    1
5       5      6    1 
6       6      7    1
7       7      8    1
8       8      9    1
9       9     10    1
10     10     11    1
*ENDBEAMS
! properties for each beam
! #, m, EA, EJ
*PROPERTIES
1   .8640   21760000   116.0533
*ENDPROPERTIES
