! Mesh Output: ADMS Assignment 2
! Max Frequency:6.00 Hz, Safety Factor:1.50
*NODES
! n. of node - constraint code (x,y,theta) - x coordinate- y coordinate.
1  0  0  0  0.0000  60.0000
2  0  0  0  17.0000  49.3120
3  0  0  0  0.0000  45.0000
4  0  0  0  17.0000  34.3120
5  0  0  0  0.0000  30.0000
6  0  0  0  17.0000  19.3120
7  0  0  0  0.0000  15.0000
8  0  0  0  17.0000  4.3120
9  1  1  1  0.0000  0.0000
10  1  1  1  17.0000  0.0000
11  0  0  0  50.6000  28.1880
12  0  0  0  67.6000  17.5000
13  0  0  0  50.6000  13.1880
14  0  0  0  67.6000  8.7500
15  0  0  0  50.6000  6.5940
16  1  1  1  67.6000  0.0000
17  1  1  1  50.6000  0.0000
18  0  0  0  128.0000  0.0000
19  0  0  0  8.5000  47.1560
20  0  0  0  8.5000  39.6560
21  0  0  0  8.5000  32.1560
22  0  0  0  8.5000  24.6560
23  0  0  0  8.5000  17.1560
24  0  0  0  8.5000  9.6560
25  0  0  0  8.5000  2.1560
26  0  0  0  0.0000  7.5000
27  0  0  0  0.0000  22.5000
28  0  0  0  0.0000  37.5000
29  0  0  0  0.0000  52.5000
30  0  0  0  17.0000  41.8120
31  0  0  0  17.0000  26.8120
32  0  0  0  17.0000  11.8120
33  0  0  0  33.8000  38.7500
34  0  0  0  59.1000  15.3440
35  0  0  0  59.1000  10.9690
36  0  0  0  59.1000  7.6720
37  0  0  0  59.1000  3.2970
38  0  0  0  50.6000  20.6880
39  0  0  0  86.2334  7.9647
40  0  0  0  106.3155  2.0630
*ENDNODES
*BEAMS
! n. of elem. - n. of input node - n. of output node - property
1  1  2  3
2  2  19  2
3  19  3  2
4  3  20  2
5  20  4  2
6  4  21  2
7  21  5  2
8  5  22  2
9  22  6  2
10  6  23  2
11  23  7  2
12  7  24  2
13  24  8  2
14  8  25  2
15  25  9  2
16  9  26  1
17  26  7  1
18  7  27  1
19  27  5  1
20  5  28  1
21  28  3  1
22  3  29  1
23  29  1  1
24  2  30  1
25  30  4  1
26  4  31  1
27  31  6  1
28  6  32  1
29  32  8  1
30  8  10  1
31  2  33  3
32  33  11  3
33  11  12  3
34  12  34  2
35  34  13  2
36  13  35  2
37  35  14  2
38  14  36  2
39  36  15  2
40  15  37  2
41  37  16  2
42  17  15  1
43  15  13  1
44  13  38  1
45  38  11  1
46  12  14  1
47  14  16  1
48  12  39  3
49  39  40  3
50  40  18  3
*ENDBEAMS
! properties for each beam
! #, m, EA, EJ
*PROPERTIES
1  122.00  3.2100e+09  2.0000e+08
2  80.00  1.7400e+09  4.8000e+07
3  400.00  2.5000e+09  4.0000e+09
*ENDPROPERTIES
